;; sequence(s): A42303
;; terms: 1 26 1353 35204 1831961 47666190 2480473841 64539986056 3358559748753 87387093453634 4547487419337721 118322059996234380 6157294607223525481 160207981847807896886 8336972350693234163553 216921489099871896149264
;; small program: loop2((loop(x + x, y mod 2, 2 + loop((2 + y) * x, 2, 2)) * x) + y, x, x, 1, 0)
;; fast program: loop2((loop(x + x, y mod 2, 2 + (2 * (2 * (2 + (2 + 2))))) * x) + y, x, x, 1, 0)
(set-logic UFNIA)
(define-fun modf ((a Int) (b Int)) Int (ite (< 0 b) (mod a b) (- (mod (- a) (- b)))))
(declare-fun f1 (Int) Int)
(declare-fun g1 (Int Int) Int)
(declare-fun f2 (Int Int) Int)
(declare-fun g2 () Int)
(declare-fun h2 () Int)
(declare-fun u2 (Int Int) Int)
(declare-fun v2 () Int)
(declare-fun h1 () Int)
(declare-fun u1 (Int Int) Int)
(declare-fun v1 (Int Int) Int)
(declare-fun f0 (Int Int) Int)
(declare-fun g0 (Int) Int)
(declare-fun h0 (Int) Int)
(declare-fun i0 () Int)
(declare-fun j0 () Int)
(declare-fun u0 (Int Int Int) Int)
(declare-fun v0 (Int Int Int) Int)
(declare-fun w0 (Int) Int)
(declare-fun small (Int) Int)
(declare-fun f4 (Int) Int)
(declare-fun g4 (Int Int) Int)
(declare-fun h4 () Int)
(declare-fun u4 (Int Int) Int)
(declare-fun v4 (Int Int) Int)
(declare-fun f3 (Int Int) Int)
(declare-fun g3 (Int) Int)
(declare-fun h3 (Int) Int)
(declare-fun i3 () Int)
(declare-fun j3 () Int)
(declare-fun u3 (Int Int Int) Int)
(declare-fun v3 (Int Int Int) Int)
(declare-fun w3 (Int) Int)
(declare-fun fast (Int) Int)
(assert (forall ((x Int)) (= (f1 x) (+ x x))))
(assert (forall ((x Int) (y Int)) (= (g1 x y) (modf y 2))))
(assert (forall ((x Int) (y Int)) (= (f2 x y) (* (+ 2 y) x))))
(assert (= g2 2))
(assert (= h2 2))
(assert (forall ((x Int) (y Int)) (= (u2 x y) (ite (<= x 0) y (f2 (u2 (- x 1) y) x)))))
(assert (= v2 (u2 g2 h2)))
(assert (= h1 (+ 2 v2)))
(assert (forall ((x Int) (y Int)) (= (u1 x y) (ite (<= x 0) y (f1 (u1 (- x 1) y))))))
(assert (forall ((x Int) (y Int)) (= (v1 x y) (u1 (g1 x y) h1))))
(assert (forall ((x Int) (y Int)) (= (f0 x y) (+ (* (v1 x y) x) y))))
(assert (forall ((x Int)) (= (g0 x) x)))
(assert (forall ((x Int)) (= (h0 x) x)))
(assert (= i0 1))
(assert (= j0 0))
(assert (forall ((x Int) (y Int) (z Int)) (= (u0 x y z) (ite (<= x 0) y (f0 (u0 (- x 1) y z) (v0 (- x 1) y z))))))
(assert (forall ((x Int) (y Int) (z Int)) (= (v0 x y z) (ite (<= x 0) z (g0 (u0 (- x 1) y z))))))
(assert (forall ((x Int)) (= (w0 x) (u0 (h0 x) i0 j0))))
(assert (forall ((x Int)) (= (small x) (w0 x))))
(assert (forall ((x Int)) (= (f4 x) (+ x x))))
(assert (forall ((x Int) (y Int)) (= (g4 x y) (modf y 2))))
(assert (= h4 (+ 2 (* 2 (* 2 (+ 2 (+ 2 2)))))))
(assert (forall ((x Int) (y Int)) (= (u4 x y) (ite (<= x 0) y (f4 (u4 (- x 1) y))))))
(assert (forall ((x Int) (y Int)) (= (v4 x y) (u4 (g4 x y) h4))))
(assert (forall ((x Int) (y Int)) (= (f3 x y) (+ (* (v4 x y) x) y))))
(assert (forall ((x Int)) (= (g3 x) x)))
(assert (forall ((x Int)) (= (h3 x) x)))
(assert (= i3 1))
(assert (= j3 0))
(assert (forall ((x Int) (y Int) (z Int)) (= (u3 x y z) (ite (<= x 0) y (f3 (u3 (- x 1) y z) (v3 (- x 1) y z))))))
(assert (forall ((x Int) (y Int) (z Int)) (= (v3 x y z) (ite (<= x 0) z (g3 (u3 (- x 1) y z))))))
(assert (forall ((x Int)) (= (w3 x) (u3 (h3 x) i3 j3))))
(assert (forall ((x Int)) (= (fast x) (w3 x))))
(assert (exists ((c Int)) (and (>= c 0) (not (= (small c) (fast c))))))
(check-sat)
